coords = array2d(1..61, 1..2, [190, 854, 800, 173, 736, 492, 872, 975, 876,
    784, 313, 866, 994, 5, 556, 394, 615, 817, 725, 477, 833, 696,
    440, 632, 733, 749, 440, 272, 660, 871, 980, 848, 525, 19, 716,
    92, 491, 339, 512, 664, 214, 290, 78, 79, 58, 588, 318, 876, 78,
    779, 912, 522, 467, 935, 403, 61, 274, 23, 477, 578, 152, 723,
    445, 773, 220, 225, 346, 173, 386, 716, 641, 578, 606, 635, 788,
    574, 884, 215, 544, 194, 882, 360, 896, 477, 29, 166, 474, 215,
    998, 713, 628, 203, 42, 285, 866, 807, 457, 772, 483, 823, 264,
    879, 801, 112, 108, 876, 704, 491, 498, 27, 69, 801, 207, 170,
    488, 786, 169, 858, 583, 699, 124, 131]);

n = 61;

